examples/dynamic/debug4/polyrank7.t2.c_Iteration1_Lasso_6-phaseTemplate.smt2
(set-info :smt-lib-version 2.6)
(set-logic QF_NRA)
(set-info :source |
SMT script generated by Ultimate LassoRanker [1]
Ultimate LassoRanker is a tool that synthesizes ranking functions for 
linear lasso programs and implements the techniques presented in [2] and [3].
For generating these SMT scripts Ultimate LassoRanker was used as a sub 
procedure of the termination analyzer Ultimate BuchiAutomizer [4] which 
implements the techniques presented in [5].

This SMT script belongs to a set of SMT scripts that was generated by applying
revision 11505 of BuchiAutomizer to
- the benchmarks from the demonstration category on termination of the SV-COMP 
2014 [6] available at [7],
- the benchmarks from [8] which are available at [9] and,
- benchmarks from the repository of Ultimate LassoRanker.
This set of SMT scripts contains only SMT scripts that we considered to be 
difficult because LassoRanker run into a timeout after 10 seconds.

2014-05-03, Matthias Heizmann (heizmann@informatik.uni-freiburg.de)


[1] http://ultimate.informatik.uni-freiburg.de/LassoRanker/
[2] Jan Leike and Matthias Heizmann. Ranking Templates for Linear Loops. In 
TACAS 2014.
[3] Matthias Heizmann, Jochen Hoenicke, Jan Leike and Andreas Podelski. Linear 
Ranking for Linear Lasso Programs. In ATVA 2013.
[4] http://ultimate.informatik.uni-freiburg.de/BuchiAutomizer/
[5] Matthias Heizmann, Jochen Hoenicke and Andreas Podelski. Termination 
Analysis by Learning Terminating Programs. Accepted at CAV 2014
[6] Dirk Beyer: Status Report on Software Verification - (Competition Summary 
SV-COMP 2014). TACAS 2014
[7] https://svn.sosy-lab.org/software/sv-benchmarks/trunk/c/termination-crafted/
[8] Marc Brockschmidt, Byron Cook, Carsten Fuhs: Better Termination Proving 
through Cooperation. CAV 2013:413-429
[9] http://verify.rwth-aachen.de/brockschmidt/Cooperating-T2/
|)
(set-info :category "industrial")
(set-info :status unknown)
(declare-fun delta0 () Real)
(assert (> delta0 0.0))
(declare-fun rank0c () Real)
(declare-fun |rank0_main_#t~ret6| () Real)
(declare-fun rank0_main_~v2~3 () Real)
(declare-fun rank0_main_~v1~3 () Real)
(declare-fun |rank0_main_#t~ret4| () Real)
(declare-fun delta1 () Real)
(assert (> delta1 0.0))
(declare-fun rank1c () Real)
(declare-fun |rank1_main_#t~ret6| () Real)
(declare-fun rank1_main_~v2~3 () Real)
(declare-fun rank1_main_~v1~3 () Real)
(declare-fun |rank1_main_#t~ret4| () Real)
(declare-fun delta2 () Real)
(assert (> delta2 0.0))
(declare-fun rank2c () Real)
(declare-fun |rank2_main_#t~ret6| () Real)
(declare-fun rank2_main_~v2~3 () Real)
(declare-fun rank2_main_~v1~3 () Real)
(declare-fun |rank2_main_#t~ret4| () Real)
(declare-fun delta3 () Real)
(assert (> delta3 0.0))
(declare-fun rank3c () Real)
(declare-fun |rank3_main_#t~ret6| () Real)
(declare-fun rank3_main_~v2~3 () Real)
(declare-fun rank3_main_~v1~3 () Real)
(declare-fun |rank3_main_#t~ret4| () Real)
(declare-fun delta4 () Real)
(assert (> delta4 0.0))
(declare-fun rank4c () Real)
(declare-fun |rank4_main_#t~ret6| () Real)
(declare-fun rank4_main_~v2~3 () Real)
(declare-fun rank4_main_~v1~3 () Real)
(declare-fun |rank4_main_#t~ret4| () Real)
(declare-fun delta5 () Real)
(assert (> delta5 0.0))
(declare-fun rank5c () Real)
(declare-fun |rank5_main_#t~ret6| () Real)
(declare-fun rank5_main_~v2~3 () Real)
(declare-fun rank5_main_~v1~3 () Real)
(declare-fun |rank5_main_#t~ret4| () Real)
(declare-fun si721c () Real)
(declare-fun si721_main_~v2~3 () Real)
(declare-fun si721_main_~v1~3 () Real)
(declare-fun motzkin_720_0 () Real)
(declare-fun motzkin_720_1 () Real)
(declare-fun motzkin_720_2 () Real)
(declare-fun motzkin_720_3 () Real)
(declare-fun motzkin_720_4 () Real)
(declare-fun motzkin_720_5 () Real)
(declare-fun motzkin_720_6 () Real)
(declare-fun motzkin_720_7 () Real)
(declare-fun motzkin_720_8 () Real)
(declare-fun motzkin_720_9 () Real)
(declare-fun motzkin_720_10 () Real)
(declare-fun si723c () Real)
(declare-fun si723_main_~v2~3 () Real)
(declare-fun si723_main_~v1~3 () Real)
(declare-fun motzkin_722_0 () Real)
(declare-fun motzkin_722_1 () Real)
(declare-fun motzkin_722_2 () Real)
(declare-fun motzkin_722_3 () Real)
(declare-fun motzkin_722_4 () Real)
(declare-fun motzkin_722_5 () Real)
(declare-fun si725c () Real)
(declare-fun si725_main_~v2~3 () Real)
(declare-fun si725_main_~v1~3 () Real)
(declare-fun motzkin_724_0 () Real)
(declare-fun motzkin_724_1 () Real)
(declare-fun motzkin_724_2 () Real)
(declare-fun motzkin_724_3 () Real)
(declare-fun motzkin_724_4 () Real)
(declare-fun motzkin_724_5 () Real)
(declare-fun motzkin_724_6 () Real)
(declare-fun si727c () Real)
(declare-fun si727_main_~v2~3 () Real)
(declare-fun si727_main_~v1~3 () Real)
(declare-fun motzkin_726_0 () Real)
(declare-fun motzkin_726_1 () Real)
(declare-fun motzkin_726_2 () Real)
(declare-fun motzkin_726_3 () Real)
(declare-fun motzkin_726_4 () Real)
(declare-fun motzkin_726_5 () Real)
(declare-fun motzkin_726_6 () Real)
(declare-fun motzkin_726_7 () Real)
(declare-fun si729c () Real)
(declare-fun si729_main_~v2~3 () Real)
(declare-fun si729_main_~v1~3 () Real)
(declare-fun motzkin_728_0 () Real)
(declare-fun motzkin_728_1 () Real)
(declare-fun motzkin_728_2 () Real)
(declare-fun motzkin_728_3 () Real)
(declare-fun motzkin_728_4 () Real)
(declare-fun motzkin_728_5 () Real)
(declare-fun motzkin_728_6 () Real)
(declare-fun motzkin_728_7 () Real)
(declare-fun motzkin_728_8 () Real)
(declare-fun si731c () Real)
(declare-fun si731_main_~v2~3 () Real)
(declare-fun si731_main_~v1~3 () Real)
(declare-fun motzkin_730_0 () Real)
(declare-fun motzkin_730_1 () Real)
(declare-fun motzkin_730_2 () Real)
(declare-fun motzkin_730_3 () Real)
(declare-fun motzkin_730_4 () Real)
(declare-fun motzkin_730_5 () Real)
(declare-fun motzkin_730_6 () Real)
(declare-fun motzkin_730_7 () Real)
(declare-fun motzkin_730_8 () Real)
(declare-fun motzkin_730_9 () Real)
(declare-fun si733c () Real)
(declare-fun si733_main_~v2~3 () Real)
(declare-fun si733_main_~v1~3 () Real)
(declare-fun motzkin_732_0 () Real)
(declare-fun motzkin_732_1 () Real)
(declare-fun motzkin_732_2 () Real)
(declare-fun motzkin_732_3 () Real)
(declare-fun motzkin_732_4 () Real)
(declare-fun motzkin_732_5 () Real)
(declare-fun motzkin_732_6 () Real)
(declare-fun motzkin_732_7 () Real)
(declare-fun motzkin_732_8 () Real)
(declare-fun motzkin_732_9 () Real)
(declare-fun motzkin_732_10 () Real)
(declare-fun motzkin_734_0 () Real)
(declare-fun motzkin_734_1 () Real)
(declare-fun motzkin_735_0 () Real)
(declare-fun motzkin_735_1 () Real)
(declare-fun motzkin_735_2 () Real)
(declare-fun motzkin_735_3 () Real)
(declare-fun motzkin_735_4 () Real)
(declare-fun motzkin_735_5 () Real)
(declare-fun motzkin_736_0 () Real)
(declare-fun motzkin_736_1 () Real)
(declare-fun motzkin_737_0 () Real)
(declare-fun motzkin_737_1 () Real)
(declare-fun motzkin_737_2 () Real)
(declare-fun motzkin_737_3 () Real)
(declare-fun motzkin_737_4 () Real)
(declare-fun motzkin_737_5 () Real)
(declare-fun motzkin_738_0 () Real)
(declare-fun motzkin_738_1 () Real)
(declare-fun motzkin_739_0 () Real)
(declare-fun motzkin_739_1 () Real)
(declare-fun motzkin_739_2 () Real)
(declare-fun motzkin_739_3 () Real)
(declare-fun motzkin_739_4 () Real)
(declare-fun motzkin_739_5 () Real)
(declare-fun motzkin_740_0 () Real)
(declare-fun motzkin_740_1 () Real)
(declare-fun motzkin_741_0 () Real)
(declare-fun motzkin_741_1 () Real)
(declare-fun motzkin_741_2 () Real)
(declare-fun motzkin_741_3 () Real)
(declare-fun motzkin_741_4 () Real)
(declare-fun motzkin_741_5 () Real)
(declare-fun motzkin_742_0 () Real)
(declare-fun motzkin_742_1 () Real)
(declare-fun motzkin_743_0 () Real)
(declare-fun motzkin_743_1 () Real)
(declare-fun motzkin_743_2 () Real)
(declare-fun motzkin_743_3 () Real)
(declare-fun motzkin_743_4 () Real)
(declare-fun motzkin_743_5 () Real)
(declare-fun motzkin_744_0 () Real)
(declare-fun motzkin_744_1 () Real)
(declare-fun motzkin_745_0 () Real)
(declare-fun motzkin_745_1 () Real)
(declare-fun motzkin_745_2 () Real)
(declare-fun motzkin_745_3 () Real)
(declare-fun motzkin_745_4 () Real)
(declare-fun motzkin_745_5 () Real)
(declare-fun motzkin_746_0 () Real)
(declare-fun motzkin_746_1 () Real)
(declare-fun motzkin_747_0 () Real)
(declare-fun motzkin_747_1 () Real)
(declare-fun motzkin_747_2 () Real)
(declare-fun motzkin_747_3 () Real)
(declare-fun motzkin_747_4 () Real)
(declare-fun motzkin_747_5 () Real)
(assert (let ((?v_0 0.0) (?v_2 1.0) (?v_1 (* motzkin_720_1 (- 1)))) (let ((?v_3 (+ (* motzkin_720_2 (- 2)) (* motzkin_720_3 2.0) (* motzkin_720_4 (+ (* (- 1) rank0c) ?v_0)) (* motzkin_720_5 (+ (* (- 1) rank1c) ?v_0)) (* motzkin_720_6 (+ (* (- 1) rank2c) ?v_0)) (* motzkin_720_7 (+ (* (- 1) rank3c) ?v_0)) (* motzkin_720_8 (+ (* (- 1) rank4c) ?v_0)) (* motzkin_720_9 (+ (* (- 1) rank5c) ?v_0)) (* motzkin_720_10 (+ (* ?v_2 si721c) ?v_0))))) (and (>= motzkin_720_0 ?v_0) (>= motzkin_720_1 ?v_0) (>= motzkin_720_2 ?v_0) (>= motzkin_720_3 ?v_0) (>= motzkin_720_4 ?v_0) (>= motzkin_720_5 ?v_0) (>= motzkin_720_6 ?v_0) (>= motzkin_720_7 ?v_0) (>= motzkin_720_8 ?v_0) (>= motzkin_720_9 ?v_0) (>= motzkin_720_10 ?v_0) (= (+ (* motzkin_720_0 (- 1)) motzkin_720_1) ?v_0) (= (+ motzkin_720_0 ?v_1 (* motzkin_720_4 (+ (* (- 1) rank0_main_~v1~3) ?v_0)) (* motzkin_720_5 (+ (* (- 1) rank1_main_~v1~3) ?v_0)) (* motzkin_720_6 (+ (* (- 1) rank2_main_~v1~3) ?v_0)) (* motzkin_720_7 (+ (* (- 1) rank3_main_~v1~3) ?v_0)) (* motzkin_720_8 (+ (* (- 1) rank4_main_~v1~3) ?v_0)) (* motzkin_720_9 (+ (* (- 1) rank5_main_~v1~3) ?v_0)) (* motzkin_720_10 (+ (* ?v_2 si721_main_~v1~3) ?v_0))) ?v_0) (= (+ motzkin_720_0 ?v_1 motzkin_720_2 (* motzkin_720_3 (- 1)) (* motzkin_720_4 (+ (* (- 1) rank0_main_~v2~3) ?v_0)) (* motzkin_720_5 (+ (* (- 1) rank1_main_~v2~3) ?v_0)) (* motzkin_720_6 (+ (* (- 1) rank2_main_~v2~3) ?v_0)) (* motzkin_720_7 (+ (* (- 1) rank3_main_~v2~3) ?v_0)) (* motzkin_720_8 (+ (* (- 1) rank4_main_~v2~3) ?v_0)) (* motzkin_720_9 (+ (* (- 1) rank5_main_~v2~3) ?v_0)) (* motzkin_720_10 (+ (* ?v_2 si721_main_~v2~3) ?v_0))) ?v_0) (= (+ (* motzkin_720_2 (- 1)) motzkin_720_3) ?v_0) (= (+ (* motzkin_720_4 (+ (* (- 1) |rank0_main_#t~ret6|) ?v_0)) (* motzkin_720_5 (+ (* (- 1) |rank1_main_#t~ret6|) ?v_0)) (* motzkin_720_6 (+ (* (- 1) |rank2_main_#t~ret6|) ?v_0)) (* motzkin_720_7 (+ (* (- 1) |rank3_main_#t~ret6|) ?v_0)) (* motzkin_720_8 (+ (* (- 1) |rank4_main_#t~ret6|) ?v_0)) (* motzkin_720_9 (+ (* (- 1) |rank5_main_#t~ret6|) ?v_0))) ?v_0) (= (+ (* motzkin_720_4 (+ (* (- 1) |rank0_main_#t~ret4|) ?v_0)) (* motzkin_720_5 (+ (* (- 1) |rank1_main_#t~ret4|) ?v_0)) (* motzkin_720_6 (+ (* (- 1) |rank2_main_#t~ret4|) ?v_0)) (* motzkin_720_7 (+ (* (- 1) |rank3_main_#t~ret4|) ?v_0)) (* motzkin_720_8 (+ (* (- 1) |rank4_main_#t~ret4|) ?v_0)) (* motzkin_720_9 (+ (* (- 1) |rank5_main_#t~ret4|) ?v_0))) ?v_0) (<= ?v_3 ?v_0) (or (< ?v_3 ?v_0) (> ?v_0 ?v_0)) (or (= motzkin_720_4 ?v_0) (= motzkin_720_4 ?v_2)) (or (= motzkin_720_5 ?v_0) (= motzkin_720_5 ?v_2)) (or (= motzkin_720_6 ?v_0) (= motzkin_720_6 ?v_2)) (or (= motzkin_720_7 ?v_0) (= motzkin_720_7 ?v_2)) (or (= motzkin_720_8 ?v_0) (= motzkin_720_8 ?v_2)) (or (= motzkin_720_9 ?v_0) (= motzkin_720_9 ?v_2)) (= motzkin_720_10 ?v_2)))))
(assert (let ((?v_0 0.0) (?v_1 1.0) (?v_2 (* motzkin_722_1 (- 1)))) (let ((?v_3 (+ (* motzkin_722_2 (- 2)) (* motzkin_722_3 2.0) (* motzkin_722_4 (+ (* ?v_1 delta0) ?v_0)) (* motzkin_722_5 (+ (* ?v_1 si723c) ?v_0))))) (and (>= motzkin_722_0 ?v_0) (>= motzkin_722_1 ?v_0) (>= motzkin_722_2 ?v_0) (>= motzkin_722_3 ?v_0) (>= motzkin_722_4 ?v_0) (>= motzkin_722_5 ?v_0) (= (+ (* motzkin_722_0 (- 1)) motzkin_722_1 (* motzkin_722_4 (+ (* ?v_1 rank0_main_~v1~3) ?v_0))) ?v_0) (= (+ motzkin_722_0 ?v_2 (* motzkin_722_4 (+ (* (- 1) rank0_main_~v1~3) ?v_0)) (* motzkin_722_5 (+ (* ?v_1 si723_main_~v1~3) ?v_0))) ?v_0) (= (+ motzkin_722_0 ?v_2 motzkin_722_2 (* motzkin_722_3 (- 1)) (* motzkin_722_4 (+ (* (- 1) rank0_main_~v2~3) ?v_0)) (* motzkin_722_5 (+ (* ?v_1 si723_main_~v2~3) ?v_0))) ?v_0) (= (+ (* motzkin_722_2 (- 1)) motzkin_722_3 (* motzkin_722_4 (+ (* ?v_1 rank0_main_~v2~3) ?v_0))) ?v_0) (= (* motzkin_722_4 (+ (* (- 1) |rank0_main_#t~ret6|) ?v_0)) ?v_0) (= (* motzkin_722_4 (+ (* (- 1) |rank0_main_#t~ret4|) ?v_0)) ?v_0) (= (* motzkin_722_4 (+ (* ?v_1 |rank0_main_#t~ret6|) ?v_0)) ?v_0) (= (* motzkin_722_4 (+ (* ?v_1 |rank0_main_#t~ret4|) ?v_0)) ?v_0) (<= ?v_3 ?v_0) (or (< ?v_3 ?v_0) (> ?v_0 ?v_0)) (or (= motzkin_722_4 ?v_0) (= motzkin_722_4 ?v_1)) (= motzkin_722_5 ?v_1)))))
(assert (let ((?v_0 0.0) (?v_1 1.0) (?v_2 (* motzkin_724_1 (- 1)))) (let ((?v_3 (+ (* motzkin_724_2 (- 2)) (* motzkin_724_3 2.0) (* motzkin_724_4 (+ (* ?v_1 delta1) ?v_0)) (* motzkin_724_5 (+ (* (- 1) rank0c) ?v_0)) (* motzkin_724_6 (+ (* ?v_1 si725c) ?v_0))))) (and (>= motzkin_724_0 ?v_0) (>= motzkin_724_1 ?v_0) (>= motzkin_724_2 ?v_0) (>= motzkin_724_3 ?v_0) (>= motzkin_724_4 ?v_0) (>= motzkin_724_5 ?v_0) (>= motzkin_724_6 ?v_0) (= (+ (* motzkin_724_0 (- 1)) motzkin_724_1 (* motzkin_724_4 (+ (* ?v_1 rank1_main_~v1~3) ?v_0))) ?v_0) (= (+ motzkin_724_0 ?v_2 (* motzkin_724_4 (+ (* (- 1) rank1_main_~v1~3) ?v_0)) (* motzkin_724_5 (+ (* (- 1) rank0_main_~v1~3) ?v_0)) (* motzkin_724_6 (+ (* ?v_1 si725_main_~v1~3) ?v_0))) ?v_0) (= (+ motzkin_724_0 ?v_2 motzkin_724_2 (* motzkin_724_3 (- 1)) (* motzkin_724_4 (+ (* (- 1) rank1_main_~v2~3) ?v_0)) (* motzkin_724_5 (+ (* (- 1) rank0_main_~v2~3) ?v_0)) (* motzkin_724_6 (+ (* ?v_1 si725_main_~v2~3) ?v_0))) ?v_0) (= (+ (* motzkin_724_2 (- 1)) motzkin_724_3 (* motzkin_724_4 (+ (* ?v_1 rank1_main_~v2~3) ?v_0))) ?v_0) (= (+ (* motzkin_724_4 (+ (* (- 1) |rank1_main_#t~ret6|) ?v_0)) (* motzkin_724_5 (+ (* (- 1) |rank0_main_#t~ret6|) ?v_0))) ?v_0) (= (+ (* motzkin_724_4 (+ (* (- 1) |rank1_main_#t~ret4|) ?v_0)) (* motzkin_724_5 (+ (* (- 1) |rank0_main_#t~ret4|) ?v_0))) ?v_0) (= (* motzkin_724_4 (+ (* ?v_1 |rank1_main_#t~ret6|) ?v_0)) ?v_0) (= (* motzkin_724_4 (+ (* ?v_1 |rank1_main_#t~ret4|) ?v_0)) ?v_0) (<= ?v_3 ?v_0) (or (< ?v_3 ?v_0) (> ?v_0 ?v_0)) (or (= motzkin_724_4 ?v_0) (= motzkin_724_4 ?v_1)) (or (= motzkin_724_5 ?v_0) (= motzkin_724_5 ?v_1)) (= motzkin_724_6 ?v_1)))))
(assert (let ((?v_0 0.0) (?v_1 1.0) (?v_2 (* motzkin_726_1 (- 1)))) (let ((?v_3 (+ (* motzkin_726_2 (- 2)) (* motzkin_726_3 2.0) (* motzkin_726_4 (+ (* ?v_1 delta2) ?v_0)) (* motzkin_726_5 (+ (* (- 1) rank1c) ?v_0)) (* motzkin_726_6 (+ (* (- 1) rank0c) ?v_0)) (* motzkin_726_7 (+ (* ?v_1 si727c) ?v_0))))) (and (>= motzkin_726_0 ?v_0) (>= motzkin_726_1 ?v_0) (>= motzkin_726_2 ?v_0) (>= motzkin_726_3 ?v_0) (>= motzkin_726_4 ?v_0) (>= motzkin_726_5 ?v_0) (>= motzkin_726_6 ?v_0) (>= motzkin_726_7 ?v_0) (= (+ (* motzkin_726_0 (- 1)) motzkin_726_1 (* motzkin_726_4 (+ (* ?v_1 rank2_main_~v1~3) ?v_0))) ?v_0) (= (+ motzkin_726_0 ?v_2 (* motzkin_726_4 (+ (* (- 1) rank2_main_~v1~3) ?v_0)) (* motzkin_726_5 (+ (* (- 1) rank1_main_~v1~3) ?v_0)) (* motzkin_726_6 (+ (* (- 1) rank0_main_~v1~3) ?v_0)) (* motzkin_726_7 (+ (* ?v_1 si727_main_~v1~3) ?v_0))) ?v_0) (= (+ motzkin_726_0 ?v_2 motzkin_726_2 (* motzkin_726_3 (- 1)) (* motzkin_726_4 (+ (* (- 1) rank2_main_~v2~3) ?v_0)) (* motzkin_726_5 (+ (* (- 1) rank1_main_~v2~3) ?v_0)) (* motzkin_726_6 (+ (* (- 1) rank0_main_~v2~3) ?v_0)) (* motzkin_726_7 (+ (* ?v_1 si727_main_~v2~3) ?v_0))) ?v_0) (= (+ (* motzkin_726_2 (- 1)) motzkin_726_3 (* motzkin_726_4 (+ (* ?v_1 rank2_main_~v2~3) ?v_0))) ?v_0) (= (+ (* motzkin_726_4 (+ (* (- 1) |rank2_main_#t~ret6|) ?v_0)) (* motzkin_726_5 (+ (* (- 1) |rank1_main_#t~ret6|) ?v_0)) (* motzkin_726_6 (+ (* (- 1) |rank0_main_#t~ret6|) ?v_0))) ?v_0) (= (+ (* motzkin_726_4 (+ (* (- 1) |rank2_main_#t~ret4|) ?v_0)) (* motzkin_726_5 (+ (* (- 1) |rank1_main_#t~ret4|) ?v_0)) (* motzkin_726_6 (+ (* (- 1) |rank0_main_#t~ret4|) ?v_0))) ?v_0) (= (* motzkin_726_4 (+ (* ?v_1 |rank2_main_#t~ret6|) ?v_0)) ?v_0) (= (* motzkin_726_4 (+ (* ?v_1 |rank2_main_#t~ret4|) ?v_0)) ?v_0) (<= ?v_3 ?v_0) (or (< ?v_3 ?v_0) (> ?v_0 ?v_0)) (or (= motzkin_726_4 ?v_0) (= motzkin_726_4 ?v_1)) (or (= motzkin_726_5 ?v_0) (= motzkin_726_5 ?v_1)) (or (= motzkin_726_6 ?v_0) (= motzkin_726_6 ?v_1)) (= motzkin_726_7 ?v_1)))))
(assert (let ((?v_0 0.0) (?v_1 1.0) (?v_2 (* motzkin_728_1 (- 1)))) (let ((?v_3 (+ (* motzkin_728_2 (- 2)) (* motzkin_728_3 2.0) (* motzkin_728_4 (+ (* ?v_1 delta3) ?v_0)) (* motzkin_728_5 (+ (* (- 1) rank2c) ?v_0)) (* motzkin_728_6 (+ (* (- 1) rank1c) ?v_0)) (* motzkin_728_7 (+ (* (- 1) rank0c) ?v_0)) (* motzkin_728_8 (+ (* ?v_1 si729c) ?v_0))))) (and (>= motzkin_728_0 ?v_0) (>= motzkin_728_1 ?v_0) (>= motzkin_728_2 ?v_0) (>= motzkin_728_3 ?v_0) (>= motzkin_728_4 ?v_0) (>= motzkin_728_5 ?v_0) (>= motzkin_728_6 ?v_0) (>= motzkin_728_7 ?v_0) (>= motzkin_728_8 ?v_0) (= (+ (* motzkin_728_0 (- 1)) motzkin_728_1 (* motzkin_728_4 (+ (* ?v_1 rank3_main_~v1~3) ?v_0))) ?v_0) (= (+ motzkin_728_0 ?v_2 (* motzkin_728_4 (+ (* (- 1) rank3_main_~v1~3) ?v_0)) (* motzkin_728_5 (+ (* (- 1) rank2_main_~v1~3) ?v_0)) (* motzkin_728_6 (+ (* (- 1) rank1_main_~v1~3) ?v_0)) (* motzkin_728_7 (+ (* (- 1) rank0_main_~v1~3) ?v_0)) (* motzkin_728_8 (+ (* ?v_1 si729_main_~v1~3) ?v_0))) ?v_0) (= (+ motzkin_728_0 ?v_2 motzkin_728_2 (* motzkin_728_3 (- 1)) (* motzkin_728_4 (+ (* (- 1) rank3_main_~v2~3) ?v_0)) (* motzkin_728_5 (+ (* (- 1) rank2_main_~v2~3) ?v_0)) (* motzkin_728_6 (+ (* (- 1) rank1_main_~v2~3) ?v_0)) (* motzkin_728_7 (+ (* (- 1) rank0_main_~v2~3) ?v_0)) (* motzkin_728_8 (+ (* ?v_1 si729_main_~v2~3) ?v_0))) ?v_0) (= (+ (* motzkin_728_2 (- 1)) motzkin_728_3 (* motzkin_728_4 (+ (* ?v_1 rank3_main_~v2~3) ?v_0))) ?v_0) (= (+ (* motzkin_728_4 (+ (* (- 1) |rank3_main_#t~ret6|) ?v_0)) (* motzkin_728_5 (+ (* (- 1) |rank2_main_#t~ret6|) ?v_0)) (* motzkin_728_6 (+ (* (- 1) |rank1_main_#t~ret6|) ?v_0)) (* motzkin_728_7 (+ (* (- 1) |rank0_main_#t~ret6|) ?v_0))) ?v_0) (= (+ (* motzkin_728_4 (+ (* (- 1) |rank3_main_#t~ret4|) ?v_0)) (* motzkin_728_5 (+ (* (- 1) |rank2_main_#t~ret4|) ?v_0)) (* motzkin_728_6 (+ (* (- 1) |rank1_main_#t~ret4|) ?v_0)) (* motzkin_728_7 (+ (* (- 1) |rank0_main_#t~ret4|) ?v_0))) ?v_0) (= (* motzkin_728_4 (+ (* ?v_1 |rank3_main_#t~ret6|) ?v_0)) ?v_0) (= (* motzkin_728_4 (+ (* ?v_1 |rank3_main_#t~ret4|) ?v_0)) ?v_0) (<= ?v_3 ?v_0) (or (< ?v_3 ?v_0) (> ?v_0 ?v_0)) (or (= motzkin_728_4 ?v_0) (= motzkin_728_4 ?v_1)) (or (= motzkin_728_5 ?v_0) (= motzkin_728_5 ?v_1)) (or (= motzkin_728_6 ?v_0) (= motzkin_728_6 ?v_1)) (or (= motzkin_728_7 ?v_0) (= motzkin_728_7 ?v_1)) (= motzkin_728_8 ?v_1)))))
(assert (let ((?v_0 0.0) (?v_1 1.0) (?v_2 (* motzkin_730_1 (- 1)))) (let ((?v_3 (+ (* motzkin_730_2 (- 2)) (* motzkin_730_3 2.0) (* motzkin_730_4 (+ (* ?v_1 delta4) ?v_0)) (* motzkin_730_5 (+ (* (- 1) rank3c) ?v_0)) (* motzkin_730_6 (+ (* (- 1) rank2c) ?v_0)) (* motzkin_730_7 (+ (* (- 1) rank1c) ?v_0)) (* motzkin_730_8 (+ (* (- 1) rank0c) ?v_0)) (* motzkin_730_9 (+ (* ?v_1 si731c) ?v_0))))) (and (>= motzkin_730_0 ?v_0) (>= motzkin_730_1 ?v_0) (>= motzkin_730_2 ?v_0) (>= motzkin_730_3 ?v_0) (>= motzkin_730_4 ?v_0) (>= motzkin_730_5 ?v_0) (>= motzkin_730_6 ?v_0) (>= motzkin_730_7 ?v_0) (>= motzkin_730_8 ?v_0) (>= motzkin_730_9 ?v_0) (= (+ (* motzkin_730_0 (- 1)) motzkin_730_1 (* motzkin_730_4 (+ (* ?v_1 rank4_main_~v1~3) ?v_0))) ?v_0) (= (+ motzkin_730_0 ?v_2 (* motzkin_730_4 (+ (* (- 1) rank4_main_~v1~3) ?v_0)) (* motzkin_730_5 (+ (* (- 1) rank3_main_~v1~3) ?v_0)) (* motzkin_730_6 (+ (* (- 1) rank2_main_~v1~3) ?v_0)) (* motzkin_730_7 (+ (* (- 1) rank1_main_~v1~3) ?v_0)) (* motzkin_730_8 (+ (* (- 1) rank0_main_~v1~3) ?v_0)) (* motzkin_730_9 (+ (* ?v_1 si731_main_~v1~3) ?v_0))) ?v_0) (= (+ motzkin_730_0 ?v_2 motzkin_730_2 (* motzkin_730_3 (- 1)) (* motzkin_730_4 (+ (* (- 1) rank4_main_~v2~3) ?v_0)) (* motzkin_730_5 (+ (* (- 1) rank3_main_~v2~3) ?v_0)) (* motzkin_730_6 (+ (* (- 1) rank2_main_~v2~3) ?v_0)) (* motzkin_730_7 (+ (* (- 1) rank1_main_~v2~3) ?v_0)) (* motzkin_730_8 (+ (* (- 1) rank0_main_~v2~3) ?v_0)) (* motzkin_730_9 (+ (* ?v_1 si731_main_~v2~3) ?v_0))) ?v_0) (= (+ (* motzkin_730_2 (- 1)) motzkin_730_3 (* motzkin_730_4 (+ (* ?v_1 rank4_main_~v2~3) ?v_0))) ?v_0) (= (+ (* motzkin_730_4 (+ (* (- 1) |rank4_main_#t~ret6|) ?v_0)) (* motzkin_730_5 (+ (* (- 1) |rank3_main_#t~ret6|) ?v_0)) (* motzkin_730_6 (+ (* (- 1) |rank2_main_#t~ret6|) ?v_0)) (* motzkin_730_7 (+ (* (- 1) |rank1_main_#t~ret6|) ?v_0)) (* motzkin_730_8 (+ (* (- 1) |rank0_main_#t~ret6|) ?v_0))) ?v_0) (= (+ (* motzkin_730_4 (+ (* (- 1) |rank4_main_#t~ret4|) ?v_0)) (* motzkin_730_5 (+ (* (- 1) |rank3_main_#t~ret4|) ?v_0)) (* motzkin_730_6 (+ (* (- 1) |rank2_main_#t~ret4|) ?v_0)) (* motzkin_730_7 (+ (* (- 1) |rank1_main_#t~ret4|) ?v_0)) (* motzkin_730_8 (+ (* (- 1) |rank0_main_#t~ret4|) ?v_0))) ?v_0) (= (* motzkin_730_4 (+ (* ?v_1 |rank4_main_#t~ret6|) ?v_0)) ?v_0) (= (* motzkin_730_4 (+ (* ?v_1 |rank4_main_#t~ret4|) ?v_0)) ?v_0) (<= ?v_3 ?v_0) (or (< ?v_3 ?v_0) (> ?v_0 ?v_0)) (or (= motzkin_730_4 ?v_0) (= motzkin_730_4 ?v_1)) (or (= motzkin_730_5 ?v_0) (= motzkin_730_5 ?v_1)) (or (= motzkin_730_6 ?v_0) (= motzkin_730_6 ?v_1)) (or (= motzkin_730_7 ?v_0) (= motzkin_730_7 ?v_1)) (or (= motzkin_730_8 ?v_0) (= motzkin_730_8 ?v_1)) (= motzkin_730_9 ?v_1)))))
(assert (let ((?v_0 0.0) (?v_1 1.0) (?v_2 (* motzkin_732_1 (- 1)))) (let ((?v_3 (+ (* motzkin_732_2 (- 2)) (* motzkin_732_3 2.0) (* motzkin_732_4 (+ (* ?v_1 delta5) ?v_0)) (* motzkin_732_5 (+ (* (- 1) rank4c) ?v_0)) (* motzkin_732_6 (+ (* (- 1) rank3c) ?v_0)) (* motzkin_732_7 (+ (* (- 1) rank2c) ?v_0)) (* motzkin_732_8 (+ (* (- 1) rank1c) ?v_0)) (* motzkin_732_9 (+ (* (- 1) rank0c) ?v_0)) (* motzkin_732_10 (+ (* ?v_1 si733c) ?v_0))))) (and (>= motzkin_732_0 ?v_0) (>= motzkin_732_1 ?v_0) (>= motzkin_732_2 ?v_0) (>= motzkin_732_3 ?v_0) (>= motzkin_732_4 ?v_0) (>= motzkin_732_5 ?v_0) (>= motzkin_732_6 ?v_0) (>= motzkin_732_7 ?v_0) (>= motzkin_732_8 ?v_0) (>= motzkin_732_9 ?v_0) (>= motzkin_732_10 ?v_0) (= (+ (* motzkin_732_0 (- 1)) motzkin_732_1 (* motzkin_732_4 (+ (* ?v_1 rank5_main_~v1~3) ?v_0))) ?v_0) (= (+ motzkin_732_0 ?v_2 (* motzkin_732_4 (+ (* (- 1) rank5_main_~v1~3) ?v_0)) (* motzkin_732_5 (+ (* (- 1) rank4_main_~v1~3) ?v_0)) (* motzkin_732_6 (+ (* (- 1) rank3_main_~v1~3) ?v_0)) (* motzkin_732_7 (+ (* (- 1) rank2_main_~v1~3) ?v_0)) (* motzkin_732_8 (+ (* (- 1) rank1_main_~v1~3) ?v_0)) (* motzkin_732_9 (+ (* (- 1) rank0_main_~v1~3) ?v_0)) (* motzkin_732_10 (+ (* ?v_1 si733_main_~v1~3) ?v_0))) ?v_0) (= (+ motzkin_732_0 ?v_2 motzkin_732_2 (* motzkin_732_3 (- 1)) (* motzkin_732_4 (+ (* (- 1) rank5_main_~v2~3) ?v_0)) (* motzkin_732_5 (+ (* (- 1) rank4_main_~v2~3) ?v_0)) (* motzkin_732_6 (+ (* (- 1) rank3_main_~v2~3) ?v_0)) (* motzkin_732_7 (+ (* (- 1) rank2_main_~v2~3) ?v_0)) (* motzkin_732_8 (+ (* (- 1) rank1_main_~v2~3) ?v_0)) (* motzkin_732_9 (+ (* (- 1) rank0_main_~v2~3) ?v_0)) (* motzkin_732_10 (+ (* ?v_1 si733_main_~v2~3) ?v_0))) ?v_0) (= (+ (* motzkin_732_2 (- 1)) motzkin_732_3 (* motzkin_732_4 (+ (* ?v_1 rank5_main_~v2~3) ?v_0))) ?v_0) (= (+ (* motzkin_732_4 (+ (* (- 1) |rank5_main_#t~ret6|) ?v_0)) (* motzkin_732_5 (+ (* (- 1) |rank4_main_#t~ret6|) ?v_0)) (* motzkin_732_6 (+ (* (- 1) |rank3_main_#t~ret6|) ?v_0)) (* motzkin_732_7 (+ (* (- 1) |rank2_main_#t~ret6|) ?v_0)) (* motzkin_732_8 (+ (* (- 1) |rank1_main_#t~ret6|) ?v_0)) (* motzkin_732_9 (+ (* (- 1) |rank0_main_#t~ret6|) ?v_0))) ?v_0) (= (+ (* motzkin_732_4 (+ (* (- 1) |rank5_main_#t~ret4|) ?v_0)) (* motzkin_732_5 (+ (* (- 1) |rank4_main_#t~ret4|) ?v_0)) (* motzkin_732_6 (+ (* (- 1) |rank3_main_#t~ret4|) ?v_0)) (* motzkin_732_7 (+ (* (- 1) |rank2_main_#t~ret4|) ?v_0)) (* motzkin_732_8 (+ (* (- 1) |rank1_main_#t~ret4|) ?v_0)) (* motzkin_732_9 (+ (* (- 1) |rank0_main_#t~ret4|) ?v_0))) ?v_0) (= (* motzkin_732_4 (+ (* ?v_1 |rank5_main_#t~ret6|) ?v_0)) ?v_0) (= (* motzkin_732_4 (+ (* ?v_1 |rank5_main_#t~ret4|) ?v_0)) ?v_0) (<= ?v_3 ?v_0) (or (< ?v_3 ?v_0) (> ?v_0 ?v_0)) (or (= motzkin_732_4 ?v_0) (= motzkin_732_4 ?v_1)) (or (= motzkin_732_5 ?v_0) (= motzkin_732_5 ?v_1)) (or (= motzkin_732_6 ?v_0) (= motzkin_732_6 ?v_1)) (or (= motzkin_732_7 ?v_0) (= motzkin_732_7 ?v_1)) (or (= motzkin_732_8 ?v_0) (= motzkin_732_8 ?v_1)) (or (= motzkin_732_9 ?v_0) (= motzkin_732_9 ?v_1)) (= motzkin_732_10 ?v_1)))))
(assert (let ((?v_0 0.0)) (and (>= motzkin_734_0 ?v_0) (>= motzkin_734_1 ?v_0) (= (+ motzkin_734_0 (* motzkin_734_1 (+ (* (- 1) si721_main_~v1~3) ?v_0))) ?v_0) (= (* motzkin_734_1 (+ (* (- 1) si721_main_~v2~3) ?v_0)) ?v_0) (<= (* motzkin_734_1 (+ (* (- 1) si721c) ?v_0)) ?v_0) (or (< ?v_0 ?v_0) (> motzkin_734_1 ?v_0)) (= motzkin_734_1 1.0))))
(assert (let ((?v_0 0.0) (?v_2 1.0) (?v_4 (* motzkin_735_3 2.0))) (let ((?v_5 (* motzkin_735_4 (+ (* ?v_2 si721c) ?v_0))) (?v_1 (* motzkin_735_1 (- 1))) (?v_3 (* motzkin_735_2 (- 2)))) (and (>= motzkin_735_0 ?v_0) (>= motzkin_735_1 ?v_0) (>= motzkin_735_2 ?v_0) (>= motzkin_735_3 ?v_0) (>= motzkin_735_4 ?v_0) (>= motzkin_735_5 ?v_0) (= (+ (* motzkin_735_0 (- 1)) motzkin_735_1 (* motzkin_735_5 (+ (* (- 1) si721_main_~v1~3) ?v_0))) ?v_0) (= (+ motzkin_735_0 ?v_1 (* motzkin_735_4 (+ (* ?v_2 si721_main_~v1~3) ?v_0))) ?v_0) (= (+ motzkin_735_0 ?v_1 motzkin_735_2 (* motzkin_735_3 (- 1)) (* motzkin_735_4 (+ (* ?v_2 si721_main_~v2~3) ?v_0))) ?v_0) (= (+ (* motzkin_735_2 (- 1)) motzkin_735_3 (* motzkin_735_5 (+ (* (- 1) si721_main_~v2~3) ?v_0))) ?v_0) (<= (+ ?v_3 ?v_4 ?v_5 (* motzkin_735_5 (+ (* (- 1) si721c) ?v_0))) ?v_0) (or (< (+ ?v_3 ?v_4 ?v_5) ?v_0) (> motzkin_735_5 ?v_0)) (or (= motzkin_735_4 ?v_0) (= motzkin_735_4 ?v_2)) (or (= motzkin_735_5 ?v_0) (= motzkin_735_5 ?v_2))))))
(assert (let ((?v_0 0.0)) (and (>= motzkin_736_0 ?v_0) (>= motzkin_736_1 ?v_0) (= (+ motzkin_736_0 (* motzkin_736_1 (+ (* (- 1) si723_main_~v1~3) ?v_0))) ?v_0) (= (* motzkin_736_1 (+ (* (- 1) si723_main_~v2~3) ?v_0)) ?v_0) (<= (* motzkin_736_1 (+ (* (- 1) si723c) ?v_0)) ?v_0) (or (< ?v_0 ?v_0) (> motzkin_736_1 ?v_0)) (= motzkin_736_1 1.0))))
(assert (let ((?v_0 0.0) (?v_2 1.0) (?v_4 (* motzkin_737_3 2.0))) (let ((?v_5 (* motzkin_737_4 (+ (* ?v_2 si723c) ?v_0))) (?v_1 (* motzkin_737_1 (- 1))) (?v_3 (* motzkin_737_2 (- 2)))) (and (>= motzkin_737_0 ?v_0) (>= motzkin_737_1 ?v_0) (>= motzkin_737_2 ?v_0) (>= motzkin_737_3 ?v_0) (>= motzkin_737_4 ?v_0) (>= motzkin_737_5 ?v_0) (= (+ (* motzkin_737_0 (- 1)) motzkin_737_1 (* motzkin_737_5 (+ (* (- 1) si723_main_~v1~3) ?v_0))) ?v_0) (= (+ motzkin_737_0 ?v_1 (* motzkin_737_4 (+ (* ?v_2 si723_main_~v1~3) ?v_0))) ?v_0) (= (+ motzkin_737_0 ?v_1 motzkin_737_2 (* motzkin_737_3 (- 1)) (* motzkin_737_4 (+ (* ?v_2 si723_main_~v2~3) ?v_0))) ?v_0) (= (+ (* motzkin_737_2 (- 1)) motzkin_737_3 (* motzkin_737_5 (+ (* (- 1) si723_main_~v2~3) ?v_0))) ?v_0) (<= (+ ?v_3 ?v_4 ?v_5 (* motzkin_737_5 (+ (* (- 1) si723c) ?v_0))) ?v_0) (or (< (+ ?v_3 ?v_4 ?v_5) ?v_0) (> motzkin_737_5 ?v_0)) (or (= motzkin_737_4 ?v_0) (= motzkin_737_4 ?v_2)) (or (= motzkin_737_5 ?v_0) (= motzkin_737_5 ?v_2))))))
(assert (let ((?v_0 0.0)) (and (>= motzkin_738_0 ?v_0) (>= motzkin_738_1 ?v_0) (= (+ motzkin_738_0 (* motzkin_738_1 (+ (* (- 1) si725_main_~v1~3) ?v_0))) ?v_0) (= (* motzkin_738_1 (+ (* (- 1) si725_main_~v2~3) ?v_0)) ?v_0) (<= (* motzkin_738_1 (+ (* (- 1) si725c) ?v_0)) ?v_0) (or (< ?v_0 ?v_0) (> motzkin_738_1 ?v_0)) (= motzkin_738_1 1.0))))
(assert (let ((?v_0 0.0) (?v_2 1.0) (?v_4 (* motzkin_739_3 2.0))) (let ((?v_5 (* motzkin_739_4 (+ (* ?v_2 si725c) ?v_0))) (?v_1 (* motzkin_739_1 (- 1))) (?v_3 (* motzkin_739_2 (- 2)))) (and (>= motzkin_739_0 ?v_0) (>= motzkin_739_1 ?v_0) (>= motzkin_739_2 ?v_0) (>= motzkin_739_3 ?v_0) (>= motzkin_739_4 ?v_0) (>= motzkin_739_5 ?v_0) (= (+ (* motzkin_739_0 (- 1)) motzkin_739_1 (* motzkin_739_5 (+ (* (- 1) si725_main_~v1~3) ?v_0))) ?v_0) (= (+ motzkin_739_0 ?v_1 (* motzkin_739_4 (+ (* ?v_2 si725_main_~v1~3) ?v_0))) ?v_0) (= (+ motzkin_739_0 ?v_1 motzkin_739_2 (* motzkin_739_3 (- 1)) (* motzkin_739_4 (+ (* ?v_2 si725_main_~v2~3) ?v_0))) ?v_0) (= (+ (* motzkin_739_2 (- 1)) motzkin_739_3 (* motzkin_739_5 (+ (* (- 1) si725_main_~v2~3) ?v_0))) ?v_0) (<= (+ ?v_3 ?v_4 ?v_5 (* motzkin_739_5 (+ (* (- 1) si725c) ?v_0))) ?v_0) (or (< (+ ?v_3 ?v_4 ?v_5) ?v_0) (> motzkin_739_5 ?v_0)) (or (= motzkin_739_4 ?v_0) (= motzkin_739_4 ?v_2)) (or (= motzkin_739_5 ?v_0) (= motzkin_739_5 ?v_2))))))
(assert (let ((?v_0 0.0)) (and (>= motzkin_740_0 ?v_0) (>= motzkin_740_1 ?v_0) (= (+ motzkin_740_0 (* motzkin_740_1 (+ (* (- 1) si727_main_~v1~3) ?v_0))) ?v_0) (= (* motzkin_740_1 (+ (* (- 1) si727_main_~v2~3) ?v_0)) ?v_0) (<= (* motzkin_740_1 (+ (* (- 1) si727c) ?v_0)) ?v_0) (or (< ?v_0 ?v_0) (> motzkin_740_1 ?v_0)) (= motzkin_740_1 1.0))))
(assert (let ((?v_0 0.0) (?v_2 1.0) (?v_4 (* motzkin_741_3 2.0))) (let ((?v_5 (* motzkin_741_4 (+ (* ?v_2 si727c) ?v_0))) (?v_1 (* motzkin_741_1 (- 1))) (?v_3 (* motzkin_741_2 (- 2)))) (and (>= motzkin_741_0 ?v_0) (>= motzkin_741_1 ?v_0) (>= motzkin_741_2 ?v_0) (>= motzkin_741_3 ?v_0) (>= motzkin_741_4 ?v_0) (>= motzkin_741_5 ?v_0) (= (+ (* motzkin_741_0 (- 1)) motzkin_741_1 (* motzkin_741_5 (+ (* (- 1) si727_main_~v1~3) ?v_0))) ?v_0) (= (+ motzkin_741_0 ?v_1 (* motzkin_741_4 (+ (* ?v_2 si727_main_~v1~3) ?v_0))) ?v_0) (= (+ motzkin_741_0 ?v_1 motzkin_741_2 (* motzkin_741_3 (- 1)) (* motzkin_741_4 (+ (* ?v_2 si727_main_~v2~3) ?v_0))) ?v_0) (= (+ (* motzkin_741_2 (- 1)) motzkin_741_3 (* motzkin_741_5 (+ (* (- 1) si727_main_~v2~3) ?v_0))) ?v_0) (<= (+ ?v_3 ?v_4 ?v_5 (* motzkin_741_5 (+ (* (- 1) si727c) ?v_0))) ?v_0) (or (< (+ ?v_3 ?v_4 ?v_5) ?v_0) (> motzkin_741_5 ?v_0)) (or (= motzkin_741_4 ?v_0) (= motzkin_741_4 ?v_2)) (or (= motzkin_741_5 ?v_0) (= motzkin_741_5 ?v_2))))))
(assert (let ((?v_0 0.0)) (and (>= motzkin_742_0 ?v_0) (>= motzkin_742_1 ?v_0) (= (+ motzkin_742_0 (* motzkin_742_1 (+ (* (- 1) si729_main_~v1~3) ?v_0))) ?v_0) (= (* motzkin_742_1 (+ (* (- 1) si729_main_~v2~3) ?v_0)) ?v_0) (<= (* motzkin_742_1 (+ (* (- 1) si729c) ?v_0)) ?v_0) (or (< ?v_0 ?v_0) (> motzkin_742_1 ?v_0)) (= motzkin_742_1 1.0))))
(assert (let ((?v_0 0.0) (?v_2 1.0) (?v_4 (* motzkin_743_3 2.0))) (let ((?v_5 (* motzkin_743_4 (+ (* ?v_2 si729c) ?v_0))) (?v_1 (* motzkin_743_1 (- 1))) (?v_3 (* motzkin_743_2 (- 2)))) (and (>= motzkin_743_0 ?v_0) (>= motzkin_743_1 ?v_0) (>= motzkin_743_2 ?v_0) (>= motzkin_743_3 ?v_0) (>= motzkin_743_4 ?v_0) (>= motzkin_743_5 ?v_0) (= (+ (* motzkin_743_0 (- 1)) motzkin_743_1 (* motzkin_743_5 (+ (* (- 1) si729_main_~v1~3) ?v_0))) ?v_0) (= (+ motzkin_743_0 ?v_1 (* motzkin_743_4 (+ (* ?v_2 si729_main_~v1~3) ?v_0))) ?v_0) (= (+ motzkin_743_0 ?v_1 motzkin_743_2 (* motzkin_743_3 (- 1)) (* motzkin_743_4 (+ (* ?v_2 si729_main_~v2~3) ?v_0))) ?v_0) (= (+ (* motzkin_743_2 (- 1)) motzkin_743_3 (* motzkin_743_5 (+ (* (- 1) si729_main_~v2~3) ?v_0))) ?v_0) (<= (+ ?v_3 ?v_4 ?v_5 (* motzkin_743_5 (+ (* (- 1) si729c) ?v_0))) ?v_0) (or (< (+ ?v_3 ?v_4 ?v_5) ?v_0) (> motzkin_743_5 ?v_0)) (or (= motzkin_743_4 ?v_0) (= motzkin_743_4 ?v_2)) (or (= motzkin_743_5 ?v_0) (= motzkin_743_5 ?v_2))))))
(assert (let ((?v_0 0.0)) (and (>= motzkin_744_0 ?v_0) (>= motzkin_744_1 ?v_0) (= (+ motzkin_744_0 (* motzkin_744_1 (+ (* (- 1) si731_main_~v1~3) ?v_0))) ?v_0) (= (* motzkin_744_1 (+ (* (- 1) si731_main_~v2~3) ?v_0)) ?v_0) (<= (* motzkin_744_1 (+ (* (- 1) si731c) ?v_0)) ?v_0) (or (< ?v_0 ?v_0) (> motzkin_744_1 ?v_0)) (= motzkin_744_1 1.0))))
(assert (let ((?v_0 0.0) (?v_2 1.0) (?v_4 (* motzkin_745_3 2.0))) (let ((?v_5 (* motzkin_745_4 (+ (* ?v_2 si731c) ?v_0))) (?v_1 (* motzkin_745_1 (- 1))) (?v_3 (* motzkin_745_2 (- 2)))) (and (>= motzkin_745_0 ?v_0) (>= motzkin_745_1 ?v_0) (>= motzkin_745_2 ?v_0) (>= motzkin_745_3 ?v_0) (>= motzkin_745_4 ?v_0) (>= motzkin_745_5 ?v_0) (= (+ (* motzkin_745_0 (- 1)) motzkin_745_1 (* motzkin_745_5 (+ (* (- 1) si731_main_~v1~3) ?v_0))) ?v_0) (= (+ motzkin_745_0 ?v_1 (* motzkin_745_4 (+ (* ?v_2 si731_main_~v1~3) ?v_0))) ?v_0) (= (+ motzkin_745_0 ?v_1 motzkin_745_2 (* motzkin_745_3 (- 1)) (* motzkin_745_4 (+ (* ?v_2 si731_main_~v2~3) ?v_0))) ?v_0) (= (+ (* motzkin_745_2 (- 1)) motzkin_745_3 (* motzkin_745_5 (+ (* (- 1) si731_main_~v2~3) ?v_0))) ?v_0) (<= (+ ?v_3 ?v_4 ?v_5 (* motzkin_745_5 (+ (* (- 1) si731c) ?v_0))) ?v_0) (or (< (+ ?v_3 ?v_4 ?v_5) ?v_0) (> motzkin_745_5 ?v_0)) (or (= motzkin_745_4 ?v_0) (= motzkin_745_4 ?v_2)) (or (= motzkin_745_5 ?v_0) (= motzkin_745_5 ?v_2))))))
(assert (let ((?v_0 0.0)) (and (>= motzkin_746_0 ?v_0) (>= motzkin_746_1 ?v_0) (= (+ motzkin_746_0 (* motzkin_746_1 (+ (* (- 1) si733_main_~v1~3) ?v_0))) ?v_0) (= (* motzkin_746_1 (+ (* (- 1) si733_main_~v2~3) ?v_0)) ?v_0) (<= (* motzkin_746_1 (+ (* (- 1) si733c) ?v_0)) ?v_0) (or (< ?v_0 ?v_0) (> motzkin_746_1 ?v_0)) (= motzkin_746_1 1.0))))
(assert (let ((?v_0 0.0) (?v_2 1.0) (?v_4 (* motzkin_747_3 2.0))) (let ((?v_5 (* motzkin_747_4 (+ (* ?v_2 si733c) ?v_0))) (?v_1 (* motzkin_747_1 (- 1))) (?v_3 (* motzkin_747_2 (- 2)))) (and (>= motzkin_747_0 ?v_0) (>= motzkin_747_1 ?v_0) (>= motzkin_747_2 ?v_0) (>= motzkin_747_3 ?v_0) (>= motzkin_747_4 ?v_0) (>= motzkin_747_5 ?v_0) (= (+ (* motzkin_747_0 (- 1)) motzkin_747_1 (* motzkin_747_5 (+ (* (- 1) si733_main_~v1~3) ?v_0))) ?v_0) (= (+ motzkin_747_0 ?v_1 (* motzkin_747_4 (+ (* ?v_2 si733_main_~v1~3) ?v_0))) ?v_0) (= (+ motzkin_747_0 ?v_1 motzkin_747_2 (* motzkin_747_3 (- 1)) (* motzkin_747_4 (+ (* ?v_2 si733_main_~v2~3) ?v_0))) ?v_0) (= (+ (* motzkin_747_2 (- 1)) motzkin_747_3 (* motzkin_747_5 (+ (* (- 1) si733_main_~v2~3) ?v_0))) ?v_0) (<= (+ ?v_3 ?v_4 ?v_5 (* motzkin_747_5 (+ (* (- 1) si733c) ?v_0))) ?v_0) (or (< (+ ?v_3 ?v_4 ?v_5) ?v_0) (> motzkin_747_5 ?v_0)) (or (= motzkin_747_4 ?v_0) (= motzkin_747_4 ?v_2)) (or (= motzkin_747_5 ?v_0) (= motzkin_747_5 ?v_2))))))
(check-sat)
(exit)
